NAME: A-n5-f2
COMMENT : -
TYPE : GVRP
DIMENSION : 6
EDGE_WEIGHT_TYPE : EUC_2D
CAPACITY : 100
AUTONOMY : 392
TIME LIMIT : 11
SPEED : 40.0
FUEL CONSUMPTION : 1.0
DEPOT_COORD_SECTION
0 82 76
CUSTOMER_COORD_SECTION
1 49 8 19 0.9373377579404226
2 5 10 21 0.8247136454042984
3 85 60 6 0.816525918396424
4 98 5 19 0.23744799392424099
AFS_COORD_SECTION
5 13 33 0.25
6 76 19 0.25
EOF